p tw 138 144
1 2
2 51
3 14
4 5
5 6
6 7
6 18
7 8
8 9
8 11
9 10
10 13
11 12
12 13
13 15
14 25
14 45
15 16
16 17
17 39
18 19
19 20
20 21
20 24
21 22
22 23
23 39
24 26
25 36
26 27
27 28
27 30
28 29
29 32
30 31
31 32
32 33
33 34
34 35
35 37
36 43
37 38
38 39
39 40
40 41
41 42
42 43
43 44
45 46
46 47
47 48
48 49
49 50
50 52
51 62
52 53
53 54
54 55
55 56
56 57
57 58
58 59
59 60
60 61
61 63
62 73
63 64
64 65
65 66
66 67
67 68
68 69
69 70
70 71
71 72
72 74
73 84
74 75
75 76
76 77
77 78
78 79
79 80
80 81
81 82
82 83
83 85
84 95
85 86
86 87
87 88
88 89
89 90
90 91
91 92
92 93
93 94
94 96
95 106
96 97
97 98
98 99
99 100
100 101
101 102
102 103
103 104
104 105
105 107
106 117
107 108
108 109
109 110
110 111
111 112
112 113
113 114
114 115
115 116
116 118
117 128
117 25
118 119
119 120
120 121
121 122
122 123
123 124
124 125
125 126
125 132
126 127
127 129
128 3
129 130
130 131
131 137
132 133
133 134
134 135
135 136
136 137
137 138
138 4
